(set-logic QF_UF)
(set-info :source |
CADE ATP System competition. See http://www.cs.miami.edu/~tptp/CASC
 for more information. 

This benchmark was obtained by trying to find a finite model of a first-order 
formula (Albert Oliveras).
|)
(set-info :smt-lib-version 2.0)
(set-info :category "crafted")
(set-info :status unsat)
(declare-sort U 0)
(declare-fun f1 (U U) U)
(declare-fun c6 () U)
(declare-fun c3 () U)
(declare-fun c7 () U)
(declare-fun c5 () U)
(declare-fun c2 () U)
(declare-fun c4 () U)
(declare-fun c8 () U)
(declare-fun c9 () U)
(declare-fun c_0 () U)
(declare-fun c_1 () U)
(declare-fun c_2 () U)
(assert (and (= (f1 c_0 (f1 c_0 (f1 c_0 (f1 c_0 c_0)))) (f1 c_0 (f1 c_0 (f1 c_0 (f1 c_0 c_0)))))
(= (f1 (f1 c_0 c_1) c_1) (f1 c_0 (f1 c_1 c_1)))
(not (= c7 c_2))
(= (f1 (f1 c_1 c_0) c_0) (f1 c_1 (f1 c_0 c_0)))
(not (= (f1 c_0 c_0) (f1 c_1 c_0)))
(= (f1 c_0 (f1 c_1 (f1 c_1 (f1 c_1 c_0)))) (f1 c_1 (f1 c_0 (f1 c_1 (f1 c_0 c_1)))))
(= (f1 c_1 (f1 c_2 (f1 c_0 (f1 c_2 c_1)))) (f1 c_2 (f1 c_1 (f1 c_0 (f1 c_1 c_2)))))
(not (= (f1 c_1 c_0) c_2))
(= (f1 c_1 c_2) (f1 c_1 c_2))
(not (= (f1 c_0 c_2) (f1 c_2 c_2)))
(not (= (f1 c_2 c_0) (f1 c_2 c_0)))
(= (f1 c_0 c_1) (f1 c_0 c_1))
(= (f1 c_1 c_0) c_1)
(= (f1 (f1 c_1 c_1) c_2) (f1 c_1 (f1 c_1 c_2)))
(= (f1 c_2 c_0) c_1)
(= (f1 c_2 (f1 c_0 (f1 c_1 (f1 c_0 c_2)))) (f1 c_0 (f1 c_2 (f1 c_1 (f1 c_2 c_0)))))
(not (= (f1 c_1 c_1) c_2))
(not (= (f1 c_0 c_2) (f1 c_0 c_2)))
(not (= (f1 c_2 c_0) (f1 c_0 c_0)))
(= (f1 c_1 (f1 c_1 (f1 c_2 (f1 c_1 c_1)))) (f1 c_1 (f1 c_1 (f1 c_2 (f1 c_1 c_1)))))
(not (= c4 c_1))
(not (= (f1 c_2 c_1) (f1 c_1 c_1)))
(= (f1 c_1 c_0) (f1 c_1 c_0))
(not (= c7 c_1))
(= (f1 c_2 (f1 c_2 (f1 c_2 (f1 c_2 c_2)))) (f1 c_2 (f1 c_2 (f1 c_2 (f1 c_2 c_2)))))
(not (= (f1 c_0 c_2) c_0))
(= c3 c_0)
(= (f1 (f1 c_1 c_0) c_1) (f1 c_1 (f1 c_0 c_1)))
(= (f1 c_1 (f1 c_0 (f1 c_0 (f1 c_0 c_1)))) (f1 c_0 (f1 c_1 (f1 c_0 (f1 c_1 c_0)))))
(not (= (f1 c_2 c_2) (f1 c_0 c_2)))
(not (= c5 c_2))
(= (f1 (f1 c_2 c_1) c_0) (f1 c_2 (f1 c_1 c_0)))
(= (f1 (f1 c_2 c_1) c_1) (f1 c_2 (f1 c_1 c_1)))
(= (f1 (f1 c_0 c_1) c_2) (f1 c_0 (f1 c_1 c_2)))
(not (= c8 c_2))
(= (f1 (f1 c_0 c_2) c_0) (f1 c_0 (f1 c_2 c_0)))
(not (= (f1 c_1 c_0) (f1 c_1 c_2)))
(not (= (f1 c_2 c_1) c_2))
(= c5 c_1)
(not (= (f1 c_2 c_1) (f1 c_2 c_0)))
(not (= (f1 c_1 c_1) (f1 c_2 c_1)))
(= (f1 c_2 (f1 c_1 (f1 c_1 (f1 c_1 c_2)))) (f1 c_1 (f1 c_2 (f1 c_1 (f1 c_2 c_1)))))
(not (= (f1 c_0 c_0) (f1 c_0 c_2)))
(= (f1 c_1 c_2) c_1)
(= (f1 (f1 c_2 c_2) c_2) (f1 c_2 (f1 c_2 c_2)))
(= (f1 c6 c3) (f1 c7 c5))
(not (= (f1 c_1 c_2) (f1 c_1 c_0)))
(not (= c4 c_2))
(not (= (f1 c_2 c_0) c_2))
(= (f1 c_2 c_2) (f1 c_2 c_2))
(not (= c2 c_1))
(= (f1 c_2 (f1 c_0 (f1 c_0 (f1 c_0 c_2)))) (f1 c_0 (f1 c_2 (f1 c_0 (f1 c_2 c_0)))))
(= (f1 c_1 c_1) c_1)
(= c_2 c_2)
(= (f1 c_0 (f1 c_1 (f1 c_0 (f1 c_1 c_0)))) (f1 c_1 (f1 c_0 (f1 c_0 (f1 c_0 c_1)))))
(not (= (f1 c_2 c_2) (f1 c_2 c_1)))
(= (f1 (f1 c_1 c_1) c_1) (f1 c_1 (f1 c_1 c_1)))
(= c2 c_2)
(not (= (f1 c_0 c_2) (f1 c_0 c_0)))
(not (= (f1 c_1 c_2) c_2))
(not (= c3 c_1))
(not (= (f1 c_0 c_0) c_2))
(= (f1 (f1 c_2 c_0) c_0) (f1 c_2 (f1 c_0 c_0)))
(= (f1 (f1 c_2 c_1) c_2) (f1 c_2 (f1 c_1 c_2)))
(= (f1 (f1 c_1 c_2) c_2) (f1 c_1 (f1 c_2 c_2)))
(not (= c9 c_2))
(not (= (f1 c_2 c_1) (f1 c_2 c_2)))
(not (= c_0 c_1))
(not (= (f1 c_2 c_2) c_2))
(= (f1 c2 c3) (f1 c4 c5))
(not (= (f1 c_1 c_0) (f1 c_2 c_0)))
(not (= (f1 c_1 c_1) (f1 c_0 c_1)))
(= (f1 c_1 (f1 c_0 (f1 c_1 (f1 c_0 c_1)))) (f1 c_0 (f1 c_1 (f1 c_1 (f1 c_1 c_0)))))
(= (f1 c_2 (f1 c_1 (f1 c_2 (f1 c_1 c_2)))) (f1 c_1 (f1 c_2 (f1 c_2 (f1 c_2 c_1)))))
(= (f1 c_0 c_2) c_1)
(= (f1 c_1 (f1 c_0 (f1 c_2 (f1 c_0 c_1)))) (f1 c_0 (f1 c_1 (f1 c_2 (f1 c_1 c_0)))))
(= (f1 c_0 c_1) c_1)
(not (= (f1 c_1 c_2) c_0))
(not (= (f1 c_0 c_2) (f1 c_1 c_2)))
(not (= (f1 c_1 c_2) (f1 c_2 c_2)))
(not (= (f1 c_2 c_1) (f1 c_2 c_1)))
(= (f1 (f1 c_0 c_2) c_1) (f1 c_0 (f1 c_2 c_1)))
(not (= (f1 c_2 c_2) c_1))
(not (= c_1 c_0))
(not (= (f1 c_0 c_0) (f1 c_2 c_0)))
(= (f1 c_0 (f1 c_2 (f1 c_0 (f1 c_2 c_0)))) (f1 c_2 (f1 c_0 (f1 c_0 (f1 c_0 c_2)))))
(not (= (f1 c_2 c_0) (f1 c_1 c_0)))
(= c9 c_1)
(not (= (f1 c_0 c_2) c_2))
(= (f1 c_2 (f1 c_1 (f1 c_0 (f1 c_1 c_2)))) (f1 c_1 (f1 c_2 (f1 c_0 (f1 c_2 c_1)))))
(not (= (f1 c_1 c_1) c_0))
(= (f1 c_0 c_0) c_1)
(= (f1 (f1 c_0 c_0) c_2) (f1 c_0 (f1 c_0 c_2)))
(not (= c5 c_0))
(= (f1 c_0 c_0) (f1 c_0 c_0))
(not (= (f1 c_2 c_0) (f1 c_2 c_1)))
(= c6 c_1)
(= (f1 c_0 (f1 c_0 (f1 c_2 (f1 c_0 c_0)))) (f1 c_0 (f1 c_0 (f1 c_2 (f1 c_0 c_0)))))
(not (= c3 c_2))
(= (f1 c_1 (f1 c_2 (f1 c_2 (f1 c_2 c_1)))) (f1 c_2 (f1 c_1 (f1 c_2 (f1 c_1 c_2)))))
(= (f1 (f1 c_2 c_0) c_1) (f1 c_2 (f1 c_0 c_1)))
(not (= c2 c_0))
(= (f1 (f1 c_2 c_2) c_0) (f1 c_2 (f1 c_2 c_0)))
(not (= c_0 c_2))
(= (f1 c2 c8) (f1 c4 c9))
(= (f1 c_2 (f1 c_2 (f1 c_0 (f1 c_2 c_2)))) (f1 c_2 (f1 c_2 (f1 c_0 (f1 c_2 c_2)))))
(not (= c6 c_2))
(= (f1 (f1 c_0 c_0) c_1) (f1 c_0 (f1 c_0 c_1)))
(= (f1 (f1 c_1 c_1) c_0) (f1 c_1 (f1 c_1 c_0)))
(= (f1 c_0 (f1 c_2 (f1 c_1 (f1 c_2 c_0)))) (f1 c_2 (f1 c_0 (f1 c_1 (f1 c_0 c_2)))))
(not (= (f1 c_2 c_2) (f1 c_1 c_2)))
(not (= (f1 c_0 c_1) (f1 c_2 c_1)))
(= (f1 c_1 (f1 c_1 (f1 c_0 (f1 c_1 c_1)))) (f1 c_1 (f1 c_1 (f1 c_0 (f1 c_1 c_1)))))
(not (= c_2 c_1))
(not (= (f1 c_2 c_1) c_0))
(not (= (f1 c_0 c_1) c_2))
(not (= (f1 c_0 c_1) (f1 c_1 c_1)))
(= (f1 (f1 c_1 c_2) c_1) (f1 c_1 (f1 c_2 c_1)))
(= (f1 c_1 (f1 c_2 (f1 c_1 (f1 c_2 c_1)))) (f1 c_2 (f1 c_1 (f1 c_1 (f1 c_1 c_2)))))
(not (= (f1 c_0 c_1) (f1 c_0 c_0)))
(not (= (f1 c_0 c_1) c_0))
(= (f1 c_0 (f1 c_1 (f1 c_2 (f1 c_1 c_0)))) (f1 c_1 (f1 c_0 (f1 c_2 (f1 c_0 c_1)))))
(not (= c8 c_0))
(not (= (f1 c_1 c_1) (f1 c_1 c_0)))
(= (f1 c_2 c_2) c_0)
(not (= (f1 c_1 c_2) (f1 c_0 c_2)))
(not (= (f1 c_1 c_0) (f1 c_0 c_0)))
(= (f1 c_2 (f1 c_0 (f1 c_2 (f1 c_0 c_2)))) (f1 c_0 (f1 c_2 (f1 c_2 (f1 c_2 c_0)))))
(not (= (f1 c_2 c_1) (f1 c_0 c_1)))
(= (f1 (f1 c_0 c_1) c_0) (f1 c_0 (f1 c_1 c_0)))
(not (= (f1 c_0 c_0) c_0))
(= (f1 c_0 (f1 c_0 (f1 c_1 (f1 c_0 c_0)))) (f1 c_0 (f1 c_0 (f1 c_1 (f1 c_0 c_0)))))
(= c_0 c_0)
(not (= (f1 c_0 c_1) (f1 c_0 c_2)))
(= (f1 (f1 c_0 c_2) c_2) (f1 c_0 (f1 c_2 c_2)))
(not (= c9 c_0))
(not (= c6 c_0))
(= (f1 c_1 (f1 c_1 (f1 c_1 (f1 c_1 c_1)))) (f1 c_1 (f1 c_1 (f1 c_1 (f1 c_1 c_1)))))
(not (= (f1 c_1 c_1) (f1 c_1 c_1)))
(not (= (f1 c6 c8) (f1 c7 c9)))
(= (f1 c_0 (f1 c_2 (f1 c_2 (f1 c_2 c_0)))) (f1 c_2 (f1 c_0 (f1 c_2 (f1 c_0 c_2)))))
(= c_1 c_1)
(not (= (f1 c_1 c_0) c_0))
(not (= (f1 c_2 c_2) (f1 c_2 c_0)))
(not (= c_1 c_2))
(= (f1 (f1 c_1 c_2) c_0) (f1 c_1 (f1 c_2 c_0)))
(= (f1 (f1 c_2 c_2) c_1) (f1 c_2 (f1 c_2 c_1)))
(not (= (f1 c_0 c_2) (f1 c_0 c_1)))
(not (= (f1 c_2 c_0) c_0))
(not (= (f1 c_1 c_2) (f1 c_1 c_1)))
(= (f1 (f1 c_2 c_0) c_2) (f1 c_2 (f1 c_0 c_2)))
(not (= c_2 c_0))
(= (f1 c_2 (f1 c_2 (f1 c_1 (f1 c_2 c_2)))) (f1 c_2 (f1 c_2 (f1 c_1 (f1 c_2 c_2)))))
(= (f1 c_2 c_1) c_1)
(not (= (f1 c_0 c_0) (f1 c_0 c_1)))
(not (= (f1 c_1 c_1) (f1 c_1 c_2)))
(= (f1 (f1 c_0 c_0) c_0) (f1 c_0 (f1 c_0 c_0)))
(= c4 c_0)
(= (f1 (f1 c_1 c_0) c_2) (f1 c_1 (f1 c_0 c_2)))
(not (= (f1 c_1 c_0) (f1 c_1 c_1)))
(= c7 c_0)
(= c8 c_1)
(not (= (f1 c_2 c_0) (f1 c_2 c_2)))))
(check-sat)
(exit)

